projet_m2_wvcp/projet_m2_wvcp/reduced_wvcp_dzn/p10.clq.dzn
cliques=[{0,2,4,5},{1,3,6,11},{0,2,4,5},{1,3,6,11},{0,2,4,5},{0,2,4,5},{1,3,6,11},{0,7},{1,8},{2,9},{3,10},{1,3,6,11},{4,12},{5,13},{6,14},{8,10,14,15}];
nr_cliques=16;
