projet_m2_wvcp/projet_m2_wvcp/reduced_wvcp_dzn/p10.dzn
name="p10";
nr_vertices=16;
nr_edges=32;
neighborhoods=[{2,4,5,7},{3,6,8,11},{0,4,5,9},{1,6,10,11},{0,2,5,12},{0,2,4,13},{1,3,11,14},{0,9,12,13},{1,10,14,15},{2,7,12,13},{3,8,14,15},{1,3,6,15},{4,7,9,13},{5,7,9,12},{6,8,10,15},{8,10,11,14}];
weights=[1780,1780,909,909,784,510,510,389,389,107,107,78,66,39,39,6];
